
(set-logic ALL) 

(declare-datatype MyList ((Nil) (Cons (head Real) (tail MyList)) )) 
(declare-fun l0 () MyList) 
(declare-fun l1 () MyList) 
(declare-fun l2 () MyList) 
(declare-fun l3 () MyList) 
(declare-fun i0 () Real) 
(declare-fun i1 () Real) 
(assert (and (= l1 l2) (is-Nil Nil)) )
(assert (not (= l3 l0)) )
(assert (and (= l0 Nil) (= l3 Nil) (= l1 Nil) (= l0 Nil)) )
(assert (and (= l0 Nil) (= l2 l0) (= l3 Nil)) )
(assert (not (is-Cons l0)) )
(assert (is-Nil l2) )
(assert (and (= l1 l0) (= l0 Nil) (= l3 Nil) (= l3 l1)) )
(assert (not (is-Nil Nil)) )
(check-sat)
